Instance name: /home/cuong/CLionProjects/uMV-FSTSP/50_dis_rand_ins/v67
Write arg val: 1

drone speed: 1 miles/minute
uav non-eligible customer: 5 7 11 
Printing tau:
0 17.7349 60.0873 47.0158 44.5248 48.022 38.878 54.7696 42.5484 93.8241 98.8118 0 
17.7349 0 53.1121 53.9453 51.4543 54.9515 45.8075 61.6991 58.3577 100.754 105.741 17.7349 
60.0873 53.1121 0 15.5561 60.0528 39.4949 58.1205 83.9299 100.71 47.6415 52.6292 60.0873 
47.0158 53.9453 15.5561 0 44.4966 23.9387 42.5644 68.3738 85.154 46.8083 51.796 47.0158 
44.5248 51.4543 60.0528 44.4966 0 20.5579 5.6468 23.8771 40.6574 49.2993 54.287 44.5248 
48.022 54.9515 39.4949 23.9387 20.5579 0 18.6256 44.435 61.2153 45.8021 50.7898 48.022 
38.878 45.8075 58.1205 42.5644 5.6468 18.6256 0 25.8094 42.5896 54.9461 59.9338 38.878 
54.7696 61.6991 83.9299 68.3738 23.8771 44.435 25.8094 0 16.7802 51.8083 52.075 54.7696 
42.5484 58.3577 100.71 85.154 40.6574 61.2153 42.5896 16.7802 0 68.5886 68.8552 42.5484 
93.8241 100.754 47.6415 46.8083 49.2993 45.8021 54.9461 51.8083 68.5886 0 4.98774 93.8241 
98.8118 105.741 52.6292 51.796 54.287 50.7898 59.9338 52.075 68.8552 4.98774 0 98.8118 
0 0 0 0 0 0 0 0 0 0 0 0 
Printing tau_prime:
0 5.0489 20.0954 17.1714 11.8064 13.8551 10.3223 15.8394 15.5988 25.9605 27.2499 0 
5.0489 0 18.0129 15.972 14.4286 14.5909 12.846 19.7285 20.2876 26.8537 28.1767 5.0489 
20.0954 18.0129 0 4.13085 15.93 10.484 15.5328 22.3714 26.7222 15.236 16.3126 20.0954 
17.1714 15.972 4.13085 0 11.8174 6.35332 11.491 18.2465 22.6109 13.1663 14.3984 17.1714 
11.8064 14.4286 15.93 11.8174 0 5.52955 1.58257 6.88956 10.7936 15.0248 16.2211 11.8064 
13.8551 14.5909 10.484 6.35332 5.52955 0 5.50195 11.9177 16.2969 12.3015 13.6192 13.8551 
10.3223 12.846 15.5328 11.491 1.58257 5.50195 0 8.03703 11.3351 16.1185 17.3515 10.3223 
15.8394 19.7285 22.3714 18.2465 6.88956 11.9177 8.03703 0 5.50454 17.2038 18.0848 15.8394 
15.5988 20.2876 26.7222 22.6109 10.7936 16.2969 11.3351 5.50454 0 22.7078 23.5782 15.5988 
25.9605 26.8537 15.236 13.1663 15.0248 12.3015 16.1185 17.2038 22.7078 0 1.32446 25.9605 
27.2499 28.1767 16.3126 14.3984 16.2211 13.6192 17.3515 18.0848 23.5782 1.32446 0 27.2499 
0 0 0 0 0 0 0 0 0 0 0 0 
Version identifier: 22.1.1.0 | 2022-11-28 | 9160aff4d
CPXPARAM_MIP_Tolerances_Integrality              0
Tried aggregator 1 time.
MIP Presolve eliminated 1 rows and 12 columns.
MIP Presolve modified 20 coefficients.
Reduced MIP has 122 rows, 120 columns, and 510 nonzeros.
Reduced MIP has 110 binaries, 0 generals, 0 SOSs, and 0 indicators.
Presolve time = 0.00 sec. (0.27 ticks)
Found incumbent of value 561.032600 after 0.00 sec. (0.75 ticks)
Probing time = 0.00 sec. (0.26 ticks)
Cover probing fixed 0 vars, tightened 10 bounds.
Tried aggregator 1 time.
Detecting symmetries...
MIP Presolve eliminated 10 rows and 0 columns.
MIP Presolve modified 180 coefficients.
Reduced MIP has 112 rows, 120 columns, and 490 nonzeros.
Reduced MIP has 110 binaries, 0 generals, 0 SOSs, and 0 indicators.
Presolve time = 0.00 sec. (0.35 ticks)
Probing time = 0.00 sec. (0.26 ticks)
Clique table members: 67.
MIP emphasis: balance optimality and feasibility.
MIP search method: dynamic search.
Parallel mode: deterministic, using up to 20 threads.
Root relaxation solution time = 0.00 sec. (0.21 ticks)

        Nodes                                         Cuts/
   Node  Left     Objective  IInf  Best Integer    Best Bound    ItCnt     Gap

*     0+    0                          561.0326        0.0000           100.00%
      0     0      176.2343    19      561.0326      176.2343       25   68.59%
      0     0      261.3787    18      561.0326      Cuts: 52       56   53.41%
*     0+    0                          323.0780      261.3787            19.10%
      0     0      261.3787    18      323.0780      Cuts: 13       66   19.10%
      0     0      261.3787    18      323.0780      Cuts: 24       72   19.10%
*     0+    0                          293.2747      261.3787            10.88%
Detecting symmetries...

Repeating presolve.
Tried aggregator 2 times.
MIP Presolve eliminated 26 rows and 42 columns.
Aggregator did 4 substitutions.
Reduced MIP has 82 rows, 74 columns, and 320 nonzeros.
Reduced MIP has 64 binaries, 0 generals, 0 SOSs, and 0 indicators.
Presolve time = 0.00 sec. (0.25 ticks)
Probing time = 0.00 sec. (0.14 ticks)
Cover probing fixed 0 vars, tightened 16 bounds.
Tried aggregator 1 time.
Detecting symmetries...
MIP Presolve modified 124 coefficients.
Reduced MIP has 82 rows, 74 columns, and 320 nonzeros.
Reduced MIP has 64 binaries, 0 generals, 0 SOSs, and 0 indicators.
Presolve time = 0.00 sec. (0.20 ticks)
Represolve time = 0.00 sec. (0.77 ticks)
Probing time = 0.00 sec. (0.14 ticks)
Cover probing fixed 0 vars, tightened 2 bounds.
Clique table members: 49.
MIP emphasis: balance optimality and feasibility.
MIP search method: dynamic search.
Parallel mode: deterministic, using up to 20 threads.
Root relaxation solution time = 0.00 sec. (0.21 ticks)

        Nodes                                         Cuts/
   Node  Left     Objective  IInf  Best Integer    Best Bound    ItCnt     Gap

*     0+    0                          293.2747      261.3787            10.88%
      0     0      261.3787    18      293.2747      261.3787      104   10.88%
      0     0      261.3787    18      293.2747      Cuts: 18      122   10.88%
      0     0      261.3787    18      293.2747      Cuts: 12      124   10.88%
Detecting symmetries...
      0     2      261.3787    18      293.2747      265.2433      124    9.56%
Elapsed time = 0.04 sec. (13.10 ticks, tree = 0.02 MB, solutions = 3)

Clique cuts applied:  3
Implied bound cuts applied:  132
Mixed integer rounding cuts applied:  5
Lift and project cuts applied:  1
Gomory fractional cuts applied:  3

Root node processing (before b&c):
  Real time             =    0.04 sec. (13.05 ticks)
Parallel b&c, 20 threads:
  Real time             =    0.01 sec. (5.24 ticks)
  Sync time (average)   =    0.01 sec.
  Wait time (average)   =    0.00 sec.
                          ------------
Total (root+branch&cut) =    0.05 sec. (18.29 ticks)

TSP solution for this instance: 0 1 6 4 5 3 2 9 10 7 8 11 
12
Warmstart X[1][0] == 1
Warmstart X[2][1] == 1
Warmstart X[3][6] == 1
Warmstart X[4][4] == 1
Warmstart X[5][5] == 1
Warmstart X[6][3] == 1
Warmstart X[7][2] == 1
Warmstart X[8][9] == 1
Warmstart X[9][10] == 1
Warmstart X[10][7] == 1
Warmstart X[11][8] == 1
---------------------------------------------
Calculate max stage gap for sortie.... 
Stage gap of 4 with smallest length = 19.951 violated endurance constraint!
---------------------------------------------
Variable z[1][5] was set to 0.
Variable z[1][6] was set to 0.
Variable z[1][7] was set to 0.
Variable z[1][8] was set to 0.
Variable z[1][9] was set to 0.
Variable z[1][10] was set to 0.
Variable z[1][11] was set to 0.
Variable z[1][12] was set to 0.
Variable z[2][6] was set to 0.
Variable z[2][7] was set to 0.
Variable z[2][8] was set to 0.
Variable z[2][9] was set to 0.
Variable z[2][10] was set to 0.
Variable z[2][11] was set to 0.
Variable z[2][12] was set to 0.
Variable z[3][7] was set to 0.
Variable z[3][8] was set to 0.
Variable z[3][9] was set to 0.
Variable z[3][10] was set to 0.
Variable z[3][11] was set to 0.
Variable z[3][12] was set to 0.
Variable z[4][8] was set to 0.
Variable z[4][9] was set to 0.
Variable z[4][10] was set to 0.
Variable z[4][11] was set to 0.
Variable z[4][12] was set to 0.
Variable z[5][9] was set to 0.
Variable z[5][10] was set to 0.
Variable z[5][11] was set to 0.
Variable z[5][12] was set to 0.
Variable z[6][10] was set to 0.
Variable z[6][11] was set to 0.
Variable z[6][12] was set to 0.
Variable z[7][11] was set to 0.
Variable z[7][12] was set to 0.
Variable z[8][12] was set to 0.
Num constraint added = 4752
Warning:  Output names have been modified due to duplicate names or characters invalid in LP format.
Version identifier: 22.1.1.0 | 2022-11-28 | 9160aff4d
CPXPARAM_TimeLimit                               200
CPXPARAM_MIP_Tolerances_Integrality              0
1 of 1 MIP starts provided solutions.
MIP start 'm1' defined initial solution with objective 293.2747.
Tried aggregator 2 times.
MIP Presolve eliminated 6380 rows and 2356 columns.
MIP Presolve modified 2103 coefficients.
Aggregator did 32 substitutions.
Reduced MIP has 1153 rows, 2388 columns, and 38408 nonzeros.
Reduced MIP has 2367 binaries, 0 generals, 0 SOSs, and 0 indicators.
Presolve time = 0.05 sec. (136.04 ticks)
Probing fixed 225 vars, tightened 0 bounds.
Probing changed sense of 6 constraints.
Probing time = 0.03 sec. (82.91 ticks)
Cover probing fixed 0 vars, tightened 22 bounds.
Tried aggregator 2 times.
MIP Presolve eliminated 72 rows and 227 columns.
MIP Presolve modified 189 coefficients.
Aggregator did 18 substitutions.
Reduced MIP has 1063 rows, 2143 columns, and 30289 nonzeros.
Reduced MIP has 2122 binaries, 0 generals, 0 SOSs, and 0 indicators.
Presolve time = 0.02 sec. (50.99 ticks)
Probing time = 0.00 sec. (4.98 ticks)
Tried aggregator 1 time.
Detecting symmetries...
Reduced MIP has 1063 rows, 2143 columns, and 30289 nonzeros.
Reduced MIP has 2122 binaries, 0 generals, 0 SOSs, and 0 indicators.
Presolve time = 0.01 sec. (26.16 ticks)
Probing time = 0.00 sec. (4.90 ticks)
Clique table members: 7267.
MIP emphasis: balance optimality and feasibility.
MIP search method: dynamic search.
Parallel mode: deterministic, using up to 20 threads.
Root relaxation solution time = 0.10 sec. (211.55 ticks)

        Nodes                                         Cuts/
   Node  Left     Objective  IInf  Best Integer    Best Bound    ItCnt     Gap

*     0+    0                          293.2747       17.7349            93.95%
      0     0      171.7977   324      293.2747      171.7977       41   41.42%
      0     0      212.1954   191      293.2747      Cuts: 45     1679   27.65%
      0     0      216.5616   256      293.2747      Cuts: 43     3128   26.16%
      0     0      217.9056   300      293.2747      Cuts: 16     4419   25.70%
      0     0      221.1235   222      293.2747      Cuts: 16     5804   24.60%
      0     0      222.8728   259      293.2747      Cuts: 25     6344   24.01%
Detecting symmetries...
      0     0      223.6240   234      293.2747      Cuts: 31     7448   23.75%
      0     0      231.3018   183      293.2747      Cuts: 16    10127   20.05%
      0     0      236.1206   276      293.2747  ZeroHalf: 27    12820   19.49%
      0     0      236.6281   275      293.2747  ZeroHalf: 20    13771   19.32%
      0     0      236.8554   291      293.2747      Cuts: 13    15148   19.24%
      0     0      236.8554   293      293.2747   ZeroHalf: 1    15251   19.24%
      0     0      236.8554   281      293.2747       Cuts: 2    15327   19.24%
      0     0      236.8766   291      293.2747   ZeroHalf: 2    15480   19.23%
*     0+    0                          282.9326      236.8766            16.28%
Detecting symmetries...
      0     2      236.9822   253      282.9326      236.8766    15756   16.28%
Elapsed time = 1.99 sec. (3746.58 ticks, tree = 0.02 MB, solutions = 2)
     14     5      248.1536   125      282.9326      239.7365    22170   15.27%
    456    98      277.9241   127      282.9326      248.9589    76996   12.01%
   1316   324        cutoff            282.9326      257.0550   152012    9.15%
   1816   538        cutoff            282.9326      259.0752   221151    8.43%
   2468   220    infeasible            282.9326      270.6666   274711    4.34%

GUB cover cuts applied:  6
Clique cuts applied:  1
Cover cuts applied:  96
Implied bound cuts applied:  13
Zero-half cuts applied:  33
Gomory fractional cuts applied:  2

Root node processing (before b&c):
  Real time             =    1.92 sec. (3629.99 ticks)
Parallel b&c, 20 threads:
  Real time             =    1.32 sec. (1429.98 ticks)
  Sync time (average)   =    0.55 sec.
  Wait time (average)   =    0.00 sec.
                          ------------
Total (root+branch&cut) =    3.24 sec. (5059.96 ticks)
Feasible solution found!
Truck nodes:
Stage 1 at customer 0 with arrival time is: 0
Stage 1 at customer 0 with departure time is: 0
Stage 2 at customer 1 with arrival time is: 17.7349
Stage 2 at customer 1 with departure time is: 17.7349
Stage 3 at customer 2 with arrival time is: 70.847
Stage 3 at customer 2 with departure time is: 70.847
Stage 4 at customer 10 with arrival time is: 123.476
Stage 4 at customer 10 with departure time is: 123.476
Stage 5 at customer 9 with arrival time is: 128.464
Stage 5 at customer 9 with departure time is: 128.464
Stage 6 at customer 5 with arrival time is: 174.266
Stage 6 at customer 5 with departure time is: 175.266
Stage 7 at customer 6 with arrival time is: 193.892
Stage 7 at customer 6 with departure time is: 194.892
Stage 8 at customer 7 with arrival time is: 220.701
Stage 8 at customer 7 with departure time is: 221.701
Stage 9 at customer 8 with arrival time is: 238.481
Stage 9 at customer 8 with departure time is: 240.384
Stage 10 at customer 11 with arrival time is: 282.933
Stage 10 at customer 11 with departure time is: 282.933
Truck arcs:
Arc 1 connecting 0 and 1 with cost 17.7349 
Arc 2 connecting 1 and 2 with cost 53.1121 
Arc 3 connecting 2 and 10 with cost 52.6292 
Arc 4 connecting 10 and 9 with cost 4.98774 
Arc 5 connecting 9 and 5 with cost 45.8021 
Arc 6 connecting 5 and 6 with cost 18.6256 
Arc 7 connecting 6 and 7 with cost 25.8094 
Arc 8 connecting 7 and 8 with cost 16.7802 
Arc 9 connecting 8 and 11 with cost 42.5484 
Customer 3 served by drone.
Drone fly from 5 at stage 6 to serve 3 and then fly back to 6 at stage 7. 
Truck arcs during this sortie: 5--->6
Truck travel time from stage 6 to 7 is: 18.6256
Total drone travel time: 17.8443
Drone arrival time: 193.11
Truck arrival time: 193.892
Truck departure time = max(d/a, t/a) plus (sl/sr): 194.892
Customer 4 served by drone.
Drone fly from 7 at stage 8 to serve 4 and then fly back to 8 at stage 9. 
Truck arcs during this sortie: 7--->8
Truck travel time from stage 8 to 9 is: 16.7802
Total drone travel time: 17.6832
Drone arrival time: 239.384
Truck arrival time: 238.481
Truck departure time = max(d/a, t/a) plus (sl/sr): 240.384
Done!
-------------------------Re-calculated objective-----------------------
282.933
------------------------------------------------------------------------
Solve time: 3.238
OBJECTIVE VALUE: 282.933, NUMBER OF SORTIES: 2.
Number of revisit: 0
In write mode
